c "65725.clq"
p edge 150 584
e 1 5
e 1 7
e 1 16
e 1 17
e 1 18
e 1 31
e 1 35
e 1 36
e 1 38
e 1 60
e 1 69
e 1 96
e 1 99
e 1 117
e 1 123
e 1 132
e 2 5
e 2 6
e 2 7
e 2 8
e 2 9
e 2 14
e 2 18
e 2 25
e 2 27
e 2 30
e 2 33
e 2 62
e 2 83
e 2 94
e 2 95
e 2 104
e 2 116
e 2 120
e 2 141
e 2 143
e 3 5
e 3 6
e 3 8
e 3 12
e 3 13
e 3 24
e 3 32
e 3 35
e 3 56
e 3 136
e 4 5
e 4 6
e 4 10
e 4 12
e 4 43
e 4 51
e 4 64
e 4 77
e 4 79
e 4 80
e 4 81
e 4 82
e 4 87
e 4 97
e 4 107
e 4 114
e 4 120
e 4 128
e 4 139
e 5 6
e 5 7
e 5 9
e 5 11
e 5 15
e 5 21
e 5 24
e 5 30
e 5 41
e 5 54
e 5 63
e 5 64
e 5 65
e 5 67
e 5 78
e 5 124
e 5 125
e 6 7
e 6 8
e 6 9
e 6 10
e 6 11
e 6 12
e 6 14
e 6 15
e 6 16
e 6 17
e 6 18
e 6 19
e 6 21
e 6 22
e 6 23
e 6 25
e 6 26
e 6 29
e 6 34
e 6 36
e 6 37
e 6 46
e 6 49
e 6 53
e 6 58
e 6 61
e 6 62
e 6 66
e 6 68
e 6 69
e 6 71
e 6 74
e 6 77
e 6 83
e 6 85
e 6 87
e 6 89
e 6 92
e 6 93
e 6 95
e 6 103
e 6 108
e 6 120
e 6 122
e 6 124
e 7 8
e 7 10
e 7 11
e 7 14
e 7 18
e 7 33
e 7 37
e 7 45
e 7 59
e 7 62
e 7 68
e 7 79
e 7 81
e 7 85
e 7 92
e 7 93
e 7 114
e 7 116
e 7 122
e 8 9
e 8 11
e 8 13
e 8 14
e 8 16
e 8 17
e 8 20
e 8 22
e 8 24
e 8 26
e 8 27
e 8 28
e 8 31
e 8 34
e 8 35
e 8 36
e 8 39
e 8 47
e 8 48
e 8 51
e 8 55
e 8 57
e 8 63
e 8 75
e 8 80
e 8 84
e 8 85
e 8 104
e 8 110
e 8 111
e 8 112
e 8 120
e 8 121
e 8 128
e 8 137
e 8 142
e 8 146
e 9 10
e 9 12
e 9 13
e 9 19
e 9 21
e 9 27
e 9 31
e 9 33
e 9 36
e 9 40
e 9 44
e 9 50
e 9 58
e 9 63
e 9 66
e 9 76
e 9 78
e 9 89
e 9 90
e 9 92
e 9 98
e 9 102
e 9 118
e 9 121
e 10 13
e 10 23
e 10 24
e 10 27
e 10 29
e 10 31
e 10 34
e 10 39
e 10 81
e 10 83
e 10 104
e 10 115
e 10 123
e 10 133
e 11 16
e 11 20
e 11 22
e 11 34
e 11 88
e 11 109
e 11 146
e 12 15
e 12 28
e 12 46
e 12 65
e 12 69
e 12 70
e 12 89
e 12 121
e 12 122
e 12 142
e 13 19
e 13 20
e 13 39
e 13 52
e 13 57
e 13 129
e 13 149
e 14 15
e 14 23
e 14 26
e 14 32
e 14 42
e 14 52
e 14 113
e 14 126
e 14 134
e 15 17
e 15 21
e 15 23
e 15 25
e 15 44
e 15 46
e 15 47
e 15 49
e 15 57
e 15 58
e 15 69
e 15 85
e 15 86
e 15 88
e 15 102
e 15 150
e 16 20
e 16 51
e 16 76
e 16 103
e 16 148
e 16 149
e 17 22
e 17 26
e 17 30
e 17 33
e 17 35
e 17 37
e 17 38
e 17 43
e 17 45
e 17 84
e 17 89
e 17 93
e 17 97
e 17 105
e 17 111
e 17 136
e 17 150
e 18 19
e 18 59
e 18 125
e 18 132
e 19 41
e 19 42
e 19 44
e 19 56
e 19 63
e 19 102
e 19 119
e 20 47
e 20 73
e 20 86
e 20 105
e 20 135
e 21 32
e 21 76
e 21 113
e 22 29
e 22 30
e 22 50
e 22 53
e 22 54
e 22 65
e 22 83
e 22 95
e 22 106
e 22 115
e 22 119
e 22 134
e 22 144
e 23 25
e 23 28
e 23 40
e 23 42
e 23 46
e 23 59
e 23 61
e 23 68
e 23 88
e 23 112
e 23 119
e 23 129
e 23 139
e 23 140
e 24 109
e 25 43
e 25 59
e 25 66
e 25 91
e 25 108
e 25 139
e 25 141
e 26 32
e 26 77
e 26 86
e 26 130
e 27 28
e 27 60
e 27 86
e 27 103
e 27 107
e 27 109
e 27 127
e 27 135
e 27 146
e 28 29
e 28 37
e 28 43
e 28 58
e 28 73
e 28 94
e 28 102
e 28 111
e 29 38
e 29 47
e 29 61
e 29 67
e 29 90
e 29 103
e 29 144
e 30 41
e 30 62
e 30 73
e 30 74
e 30 77
e 30 117
e 31 56
e 31 64
e 31 70
e 31 75
e 31 107
e 31 117
e 31 135
e 31 137
e 31 143
e 31 150
e 32 44
e 32 45
e 32 81
e 32 87
e 32 116
e 32 118
e 32 126
e 33 41
e 33 48
e 33 139
e 34 40
e 34 49
e 34 50
e 34 53
e 34 70
e 34 147
e 35 101
e 36 38
e 36 68
e 36 94
e 36 96
e 36 101
e 37 39
e 37 42
e 37 52
e 37 61
e 37 67
e 37 80
e 37 82
e 37 96
e 37 99
e 37 100
e 37 110
e 37 135
e 38 40
e 38 48
e 38 55
e 38 78
e 38 99
e 38 145
e 39 71
e 39 72
e 39 74
e 40 60
e 40 73
e 40 82
e 40 112
e 40 137
e 41 48
e 41 60
e 41 65
e 41 78
e 41 127
e 41 129
e 41 132
e 41 133
e 41 141
e 41 148
e 42 75
e 42 92
e 42 105
e 42 107
e 42 111
e 42 119
e 42 148
e 44 45
e 44 49
e 44 50
e 44 51
e 44 53
e 44 55
e 44 88
e 44 98
e 44 100
e 44 133
e 44 147
e 45 106
e 46 142
e 47 52
e 47 64
e 47 71
e 47 75
e 47 115
e 47 122
e 47 148
e 48 57
e 48 98
e 48 134
e 49 54
e 49 118
e 50 54
e 50 56
e 50 72
e 50 138
e 51 55
e 52 67
e 52 72
e 52 84
e 52 115
e 52 121
e 52 136
e 53 149
e 54 124
e 55 110
e 56 79
e 56 101
e 56 106
e 56 112
e 58 91
e 59 84
e 59 90
e 60 124
e 60 145
e 61 114
e 62 128
e 62 138
e 63 114
e 64 76
e 64 79
e 64 82
e 64 91
e 64 93
e 64 131
e 65 66
e 65 70
e 65 74
e 65 98
e 66 96
e 66 100
e 66 108
e 66 133
e 67 71
e 67 80
e 67 90
e 67 97
e 67 108
e 67 109
e 67 131
e 71 72
e 71 91
e 71 118
e 71 125
e 71 134
e 73 104
e 73 131
e 74 97
e 74 145
e 76 116
e 76 128
e 76 143
e 77 113
e 77 137
e 81 105
e 83 87
e 83 99
e 83 100
e 83 106
e 83 150
e 85 101
e 85 129
e 86 94
e 86 145
e 87 142
e 88 141
e 89 95
e 90 144
e 91 127
e 91 143
e 93 123
e 93 136
e 94 146
e 95 147
e 96 126
e 97 113
e 97 144
e 98 130
e 99 123
e 103 110
e 104 132
e 104 138
e 104 147
e 108 140
e 110 126
e 110 140
e 111 127
e 113 117
e 114 130
e 118 149
e 121 130
e 121 131
e 123 125
e 124 138
e 137 140
